c
p cnf 26 29
16 20 0
19 15 0
-6 -10 0
-22 18 0
19 25 0
-2 -16 0
9 6 0
-9 -16 0
-21 -19 0
-17 25 0
14 -21 0
8 13 0
11 -1 0
-20 -2 0
15 14 0
-2 11 0
-20 -10 0
-17 -22 0
7 -11 0
-23 4 0
10 -22 0
24 -15 0
-26 -6 0
11 1 0
16 15 0
-14 24 0
-3 10 0
-22 1 0
-9 -2 0
